DIMACS2
40 19 35 301 275 33 67 123 181 247 282 73 29 93 175 261 265 237 283 69 161 236 101 214 210 87 40 156 71 36 83 240 196 60 227 34 26 5 287 274 25
p edge 320 1226
e 0 255 1.0
e 0 226 2.0
e 0 52 12.0
e 0 303 6.0
e 0 309 10.0
e 0 186 11.0
e 1 221 1.0
e 2 51 1.0
e 2 284 3.0
e 3 140 1.0
e 3 10 1.0
e 4 229 2.0
e 5 127 3.0
e 5 301 12.0
e 5 36 42.0
e 5 218 2.0
e 5 228 8.0
e 5 318 47.0
e 5 118 28.0
e 5 54 45.0
e 5 300 36.0
e 5 168 22.0
e 5 174 42.0
e 5 277 20.0
e 5 1 11.0
e 5 288 44.0
e 5 298 10.0
e 5 68 23.0
e 5 91 30.0
e 5 185 14.0
e 5 177 32.0
e 5 78 46.0
e 5 198 9.0
e 5 25 23.0
e 5 186 47.0
e 5 95 41.0
e 5 258 38.0
e 6 157 2.0
e 6 16 4.0
e 7 36 35.0
e 7 155 1.0
e 8 186 1.0
e 9 136 1.0
e 10 296 1.0
e 11 209 1.0
e 12 282 1.0
e 12 232 3.0
e 12 124 2.0
e 12 253 3.0
e 13 150 1.0
e 13 88 1.0
e 14 315 1.0
e 15 59 1.0
e 16 281 1.0
e 17 142 2.0
e 17 192 1.0
e 18 24 3.0
e 18 277 1.0
e 18 217 5.0
e 18 316 4.0
e 19 179 47.0
e 19 45 42.0
e 19 161 9.0
e 19 100 46.0
e 19 113 27.0
e 19 84 15.0
e 19 93 14.0
e 19 147 10.0
e 19 144 39.0
e 19 111 19.0
e 19 101 20.0
e 19 8 1.0
e 19 218 30.0
e 19 57 46.0
e 19 112 40.0
e 19 51 35.0
e 19 285 45.0
e 19 128 6.0
e 19 151 12.0
e 19 46 14.0
e 19 22 24.0
e 19 177 13.0
e 19 39 5.0
e 19 257 39.0
e 19 114 22.0
e 20 66 1.0
e 21 170 1.0
e 22 206 1.0
e 23 126 2.0
e 24 172 3.0
e 25 116 12.0
e 25 257 31.0
e 25 161 44.0
e 25 74 26.0
e 25 187 41.0
e 25 171 32.0
e 25 253 40.0
e 25 264 46.0
e 25 56 47.0
e 25 269 25.0
e 25 46 46.0
e 25 11 38.0
e 25 15 25.0
e 25 294 1.0
e 25 254 34.0
e 25 30 4.0
e 25 50 6.0
e 25 200 25.0
e 25 204 40.0
e 25 316 47.0
e 25 270 47.0
e 25 125 19.0
e 25 44 3.0
e 26 0 32.0
e 26 93 25.0
e 26 255 48.0
e 26 194 14.0
e 26 25 25.0
e 26 3 26.0
e 26 185 33.0
e 26 73 26.0
e 26 314 18.0
e 26 280 39.0
e 26 215 16.0
e 26 15 34.0
e 26 45 48.0
e 26 178 4.0
e 26 105 41.0
e 26 74 45.0
e 26 59 37.0
e 26 230 22.0
e 26 40 7.0
e 26 52 27.0
e 26 275 25.0
e 26 19 7.0
e 26 268 46.0
e 27 258 1.0
e 27 119 1.0
e 28 130 1.0
e 29 293 29.0
e 29 21 2.0
e 29 181 49.0
e 29 301 9.0
e 29 36 2.0
e 29 1 33.0
e 29 53 45.0
e 29 105 31.0
e 29 126 7.0
e 29 46 41.0
e 29 295 17.0
e 29 211 9.0
e 29 314 17.0
e 29 75 46.0
e 29 51 4.0
e 29 97 13.0
e 29 8 28.0
e 29 263 37.0
e 29 19 22.0
e 29 120 7.0
e 29 198 13.0
e 29 106 37.0
e 29 98 21.0
e 29 221 20.0
e 30 311 1.0
e 31 306 1.0
e 32 192 2.0
e 33 65 42.0
e 33 135 29.0
e 33 41 49.0
e 33 252 19.0
e 33 156 2.0
e 33 50 44.0
e 33 296 4.0
e 33 145 18.0
e 33 318 9.0
e 33 191 7.0
e 33 67 6.0
e 33 237 23.0
e 33 169 43.0
e 33 64 44.0
e 33 25 40.0
e 33 243 8.0
e 33 173 12.0
e 33 118 3.0
e 33 83 40.0
e 33 300 36.0
e 33 246 6.0
e 33 297 48.0
e 33 174 33.0
e 33 26 46.0
e 33 275 34.0
e 34 88 22.0
e 34 146 10.0
e 34 228 34.0
e 34 21 31.0
e 34 308 19.0
e 34 246 21.0
e 34 272 23.0
e 34 300 19.0
e 34 198 13.0
e 34 3 26.0
e 34 37 22.0
e 34 269 27.0
e 34 28 3.0
e 34 89 31.0
e 34 139 35.0
e 34 133 14.0
e 34 240 37.0
e 34 71 39.0
e 34 82 47.0
e 34 259 39.0
e 34 175 47.0
e 34 49 13.0
e 34 56 20.0
e 34 132 31.0
e 34 93 7.0
e 35 260 6.0
e 35 21 36.0
e 35 183 11.0
e 35 57 19.0
e 35 7 18.0
e 35 193 47.0
e 35 45 25.0
e 35 121 16.0
e 35 90 15.0
e 35 8 15.0
e 35 159 37.0
e 35 147 31.0
e 35 228 42.0
e 35 163 18.0
e 35 124 46.0
e 35 39 32.0
e 35 255 43.0
e 35 127 37.0
e 35 202 14.0
e 35 317 49.0
e 35 214 43.0
e 35 101 19.0
e 35 310 7.0
e 35 215 7.0
e 35 236 18.0
e 36 291 2.0
e 36 147 8.0
e 36 63 31.0
e 36 314 20.0
e 36 22 30.0
e 36 113 14.0
e 36 290 1.0
e 36 80 22.0
e 36 177 12.0
e 36 309 21.0
e 36 243 9.0
e 36 31 25.0
e 36 32 5.0
e 36 35 24.0
e 36 209 36.0
e 36 170 41.0
e 36 279 23.0
e 36 145 2.0
e 36 12 31.0
e 36 78 27.0
e 36 163 38.0
e 36 62 20.0
e 37 116 1.0
e 38 106 1.0
e 39 169 2.0
e 40 247 32.0
e 40 275 21.0
e 40 25 23.0
e 40 184 25.0
e 40 1 46.0
e 40 182 30.0
e 40 129 42.0
e 40 14 3.0
e 40 32 40.0
e 40 23 23.0
e 40 112 23.0
e 40 75 28.0
e 40 243 38.0
e 40 245 9.0
e 40 157 33.0
e 40 146 28.0
e 40 236 17.0
e 40 55 28.0
e 40 2 4.0
e 40 239 40.0
e 40 64 47.0
e 40 257 32.0
e 40 19 29.0
e 40 47 3.0
e 41 24 2.0
e 42 297 2.0
e 43 311 1.0
e 44 308 2.0
e 45 217 1.0
e 46 228 2.0
e 47 202 1.0
e 48 249 1.0
e 49 312 1.0
e 50 70 1.0
e 51 113 1.0
e 52 276 2.0
e 52 239 1.0
e 53 41 1.0
e 54 147 1.0
e 55 256 1.0
e 56 29 38.0
e 57 110 1.0
e 58 262 1.0
e 59 220 1.0
e 60 220 32.0
e 60 42 23.0
e 60 244 8.0
e 60 130 10.0
e 60 249 2.0
e 60 48 20.0
e 60 114 3.0
e 60 305 15.0
e 60 191 25.0
e 60 238 44.0
e 60 167 15.0
e 60 150 15.0
e 60 216 27.0
e 60 86 4.0
e 60 215 36.0
e 60 5 44.0
e 60 315 20.0
e 60 101 28.0
e 60 204 5.0
e 60 202 13.0
e 60 52 47.0
e 60 264 43.0
e 60 105 1.0
e 60 199 14.0
e 60 283 21.0
e 61 71 22.0
e 61 111 1.0
e 62 172 1.0
e 63 6 4.0
e 64 31 1.0
e 65 253 1.0
e 66 11 2.0
e 67 6 41.0
e 67 72 35.0
e 67 166 24.0
e 67 24 49.0
e 67 197 1.0
e 67 82 26.0
e 67 70 31.0
e 67 10 9.0
e 67 165 46.0
e 67 278 21.0
e 67 192 44.0
e 67 270 17.0
e 67 223 2.0
e 67 167 1.0
e 67 254 17.0
e 67 59 24.0
e 67 268 4.0
e 67 224 24.0
e 67 183 31.0
e 67 131 4.0
e 67 312 38.0
e 67 230 2.0
e 67 303 18.0
e 67 64 49.0
e 68 162 1.0
e 69 274 40.0
e 69 148 20.0
e 69 304 40.0
e 69 159 35.0
e 69 109 45.0
e 69 147 19.0
e 69 313 26.0
e 69 299 39.0
e 69 317 39.0
e 69 103 13.0
e 69 297 4.0
e 69 111 31.0
e 69 190 27.0
e 69 110 8.0
e 69 8 43.0
e 69 315 24.0
e 69 318 34.0
e 69 156 21.0
e 69 273 4.0
e 69 80 48.0
e 69 193 46.0
e 69 221 3.0
e 69 71 35.0
e 70 253 1.0
e 71 106 24.0
e 71 76 35.0
e 71 270 7.0
e 71 116 46.0
e 71 102 6.0
e 71 310 26.0
e 71 186 23.0
e 71 317 43.0
e 71 211 3.0
e 71 176 46.0
e 71 93 5.0
e 71 287 25.0
e 71 149 4.0
e 71 254 8.0
e 71 4 38.0
e 71 111 6.0
e 71 174 15.0
e 71 288 49.0
e 71 48 35.0
e 71 195 19.0
e 71 205 1.0
e 72 64 1.0
e 73 94 39.0
e 73 17 29.0
e 73 215 19.0
e 73 77 36.0
e 73 229 47.0
e 73 50 34.0
e 73 218 15.0
e 73 31 41.0
e 73 270 35.0
e 73 303 10.0
e 73 278 37.0
e 73 172 3.0
e 73 49 10.0
e 73 300 7.0
e 73 74 37.0
e 73 59 26.0
e 73 88 28.0
e 73 192 44.0
e 73 251 34.0
e 73 64 32.0
e 73 141 10.0
e 73 180 4.0
e 73 230 8.0
e 74 256 1.0
e 75 256 1.0
e 76 220 1.0
e 77 313 1.0
e 78 93 41.0
e 78 274 14.0
e 78 282 26.0
e 78 228 10.0
e 78 128 2.0
e 79 114 2.0
e 80 259 1.0
e 81 312 1.0
e 82 265 8.0
e 83 180 31.0
e 83 285 24.0
e 83 46 38.0
e 83 237 26.0
e 83 266 1.0
e 83 312 13.0
e 83 172 49.0
e 83 117 5.0
e 83 206 35.0
e 83 291 21.0
e 83 303 31.0
e 83 36 26.0
e 83 183 45.0
e 83 165 3.0
e 83 55 17.0
e 83 281 35.0
e 83 167 6.0
e 83 103 42.0
e 83 23 47.0
e 83 164 34.0
e 83 169 41.0
e 83 127 18.0
e 83 299 45.0
e 83 74 22.0
e 84 243 1.0
e 85 263 1.0
e 85 295 2.0
e 86 183 5.0
e 87 235 22.0
e 87 299 34.0
e 87 66 36.0
e 87 213 1.0
e 87 309 35.0
e 87 282 43.0
e 87 77 49.0
e 87 316 31.0
e 87 21 45.0
e 87 75 45.0
e 87 257 19.0
e 87 270 24.0
e 87 236 35.0
e 87 181 26.0
e 87 11 36.0
e 87 163 49.0
e 87 136 7.0
e 87 16 3.0
e 87 258 28.0
e 87 216 7.0
e 87 160 30.0
e 87 63 43.0
e 87 9 12.0
e 87 32 10.0
e 88 121 1.0
e 89 113 1.0
e 90 271 1.0
e 91 46 2.0
e 92 232 1.0
e 93 173 12.0
e 93 39 29.0
e 93 65 39.0
e 93 136 20.0
e 93 153 20.0
e 93 248 20.0
e 93 207 13.0
e 93 270 5.0
e 93 268 6.0
e 93 163 35.0
e 93 216 37.0
e 93 135 27.0
e 93 113 35.0
e 93 108 30.0
e 93 20 1.0
e 93 303 14.0
e 93 53 45.0
e 93 126 37.0
e 93 112 23.0
e 93 179 38.0
e 94 39 1.0
e 95 107 2.0
e 96 172 1.0
e 97 280 3.0
e 98 281 2.0
e 99 243 1.0
e 100 133 1.0
e 101 294 6.0
e 101 235 22.0
e 101 257 1.0
e 101 247 37.0
e 101 14 20.0
e 101 28 23.0
e 101 18 47.0
e 101 94 16.0
e 101 123 33.0
e 101 125 45.0
e 101 61 9.0
e 101 47 16.0
e 101 95 38.0
e 101 183 21.0
e 101 126 10.0
e 101 274 20.0
e 101 49 14.0
e 101 201 9.0
e 101 10 20.0
e 101 52 25.0
e 101 110 26.0
e 102 131 1.0
e 103 87 4.0
e 104 237 17.0
e 104 231 1.0
e 105 256 2.0
e 106 8 1.0
e 107 201 1.0
e 108 274 5.0
e 109 142 1.0
e 110 247 31.0
e 111 258 2.0
e 112 9 2.0
e 113 213 1.0
e 114 4 2.0
e 115 278 1.0
e 116 282 20.0
e 117 256 1.0
e 118 81 1.0
e 119 274 26.0
e 120 82 1.0
e 121 21 1.0
e 122 220 1.0
e 123 220 49.0
e 123 192 28.0
e 123 286 9.0
e 123 0 23.0
e 123 198 43.0
e 123 22 7.0
e 123 179 21.0
e 123 48 19.0
e 123 14 40.0
e 123 277 34.0
e 123 35 8.0
e 123 131 12.0
e 123 175 11.0
e 123 275 33.0
e 123 214 6.0
e 123 255 2.0
e 123 106 12.0
e 123 156 45.0
e 123 279 35.0
e 123 304 27.0
e 123 79 9.0
e 123 306 22.0
e 123 213 37.0
e 123 313 30.0
e 124 291 1.0
e 125 294 2.0
e 126 272 1.0
e 127 90 1.0
e 128 145 1.0
e 129 70 1.0
e 130 70 1.0
e 131 182 2.0
e 132 176 1.0
e 133 211 1.0
e 134 281 1.0
e 135 86 1.0
e 136 102 2.0
e 137 121 1.0
e 137 241 1.0
e 138 232 1.0
e 139 20 1.0
e 140 261 19.0
e 141 136 1.0
e 142 258 1.0
e 143 135 1.0
e 144 149 1.0
e 145 242 1.0
e 146 283 41.0
e 147 23 1.0
e 148 169 1.0
e 149 191 1.0
e 150 306 1.0
e 151 168 1.0
e 152 129 1.0
e 152 242 1.0
e 153 138 1.0
e 154 171 2.0
e 154 18 5.0
e 155 306 1.0
e 156 139 23.0
e 156 39 2.0
e 156 163 21.0
e 156 232 45.0
e 156 176 35.0
e 156 207 11.0
e 156 45 29.0
e 156 173 18.0
e 156 177 38.0
e 156 186 17.0
e 156 99 21.0
e 156 230 18.0
e 156 288 32.0
e 156 224 17.0
e 156 317 40.0
e 156 91 36.0
e 156 11 12.0
e 156 32 20.0
e 156 250 29.0
e 156 284 20.0
e 156 266 40.0
e 156 294 41.0
e 157 268 2.0
e 158 201 1.0
e 159 288 1.0
e 160 143 1.0
e 161 246 12.0
e 161 28 19.0
e 161 147 41.0
e 161 121 25.0
e 161 153 32.0
e 161 204 6.0
e 161 231 49.0
e 161 252 17.0
e 161 146 33.0
e 161 190 7.0
e 161 0 36.0
e 161 294 31.0
e 161 275 9.0
e 161 233 31.0
e 161 52 43.0
e 161 195 17.0
e 161 261 44.0
e 161 176 24.0
e 161 139 46.0
e 161 224 32.0
e 161 148 4.0
e 161 205 26.0
e 161 287 35.0
e 162 108 2.0
e 163 223 1.0
e 164 197 1.0
e 165 79 1.0
e 166 296 1.0
e 167 72 1.0
e 168 45 1.0
e 169 269 1.0
e 170 187 1.0
e 171 62 1.0
e 172 9 1.0
e 173 229 2.0
e 174 42 1.0
e 175 201 33.0
e 175 62 15.0
e 175 151 34.0
e 175 176 44.0
e 175 241 4.0
e 175 205 47.0
e 175 44 24.0
e 175 40 11.0
e 175 275 27.0
e 175 134 45.0
e 175 238 40.0
e 175 209 33.0
e 175 300 2.0
e 175 104 25.0
e 175 130 2.0
e 175 111 14.0
e 175 33 30.0
e 175 184 14.0
e 175 212 27.0
e 175 213 4.0
e 175 239 18.0
e 175 114 39.0
e 175 68 38.0
e 176 190 1.0
e 177 108 1.0
e 178 167 1.0
e 179 143 2.0
e 180 25 27.0
e 181 142 29.0
e 181 312 8.0
e 181 188 11.0
e 181 83 32.0
e 181 40 4.0
e 181 254 4.0
e 181 118 37.0
e 181 2 6.0
e 181 313 10.0
e 181 9 7.0
e 181 302 2.0
e 181 242 10.0
e 181 285 13.0
e 181 262 44.0
e 181 107 8.0
e 181 187 13.0
e 181 214 24.0
e 181 85 32.0
e 181 270 43.0
e 181 74 29.0
e 181 191 47.0
e 182 190 1.0
e 183 210 39.0
e 184 62 1.0
e 185 168 1.0
e 186 75 1.0
e 187 11 1.0
e 188 299 1.0
e 189 278 2.0
e 190 119 1.0
e 191 248 1.0
e 192 68 2.0
e 193 184 1.0
e 194 305 1.0
e 195 219 1.0
e 196 274 25.0
e 196 161 15.0
e 196 98 7.0
e 196 154 2.0
e 196 150 14.0
e 196 164 16.0
e 196 287 26.0
e 196 242 49.0
e 196 134 24.0
e 196 28 45.0
e 196 221 10.0
e 196 33 31.0
e 196 187 23.0
e 196 173 23.0
e 196 232 27.0
e 196 248 6.0
e 196 126 6.0
e 196 58 14.0
e 196 210 45.0
e 196 52 33.0
e 196 193 39.0
e 196 7 39.0
e 196 185 15.0
e 196 133 25.0
e 196 273 13.0
e 197 153 1.0
e 198 276 1.0
e 199 316 2.0
e 200 136 1.0
e 201 197 1.0
e 202 211 2.0
e 203 318 3.0
e 204 220 1.0
e 205 284 1.0
e 206 289 2.0
e 207 315 1.0
e 208 79 3.0
e 208 264 2.0
e 209 56 1.0
e 210 139 8.0
e 210 131 6.0
e 210 97 2.0
e 210 152 22.0
e 210 153 28.0
e 210 23 39.0
e 210 246 23.0
e 210 290 40.0
e 210 259 47.0
e 210 40 44.0
e 210 234 31.0
e 210 150 39.0
e 210 298 25.0
e 210 96 28.0
e 210 182 1.0
e 210 132 33.0
e 210 107 5.0
e 210 204 8.0
e 210 117 16.0
e 210 59 13.0
e 210 187 8.0
e 210 65 5.0
e 210 281 34.0
e 211 311 1.0
e 212 16 2.0
e 213 266 1.0
e 214 209 25.0
e 214 125 27.0
e 214 268 16.0
e 214 295 37.0
e 214 254 39.0
e 214 255 14.0
e 214 217 35.0
e 214 170 20.0
e 214 63 35.0
e 214 171 19.0
e 214 112 31.0
e 214 30 41.0
e 214 50 35.0
e 214 192 24.0
e 214 142 19.0
e 214 57 23.0
e 214 309 42.0
e 214 224 18.0
e 214 48 33.0
e 214 99 15.0
e 214 188 25.0
e 215 270 9.0
e 216 191 1.0
e 217 190 1.0
e 218 164 2.0
e 219 121 1.0
e 220 214 6.0
e 221 130 1.0
e 222 261 14.0
e 222 120 1.0
e 223 271 1.0
e 224 205 1.0
e 225 69 43.0
e 225 98 1.0
e 226 194 1.0
e 227 219 42.0
e 227 263 29.0
e 227 197 31.0
e 227 188 14.0
e 227 228 44.0
e 227 99 12.0
e 227 5 38.0
e 227 43 31.0
e 227 182 30.0
e 227 131 14.0
e 227 138 45.0
e 227 48 47.0
e 227 224 14.0
e 227 170 38.0
e 227 96 20.0
e 227 63 19.0
e 227 206 15.0
e 227 47 17.0
e 227 84 38.0
e 227 161 36.0
e 227 132 20.0
e 227 104 17.0
e 227 137 37.0
e 227 238 15.0
e 228 9 2.0
e 229 50 1.0
e 230 293 1.0
e 231 26 33.0
e 232 266 1.0
e 233 106 1.0
e 234 310 3.0
e 235 98 1.0
e 236 24 29.0
e 236 94 28.0
e 236 61 32.0
e 236 255 11.0
e 236 71 33.0
e 236 28 20.0
e 236 283 38.0
e 236 214 17.0
e 236 227 13.0
e 236 177 26.0
e 236 86 10.0
e 236 178 28.0
e 236 65 6.0
e 236 244 25.0
e 236 298 12.0
e 236 222 3.0
e 236 188 21.0
e 236 219 47.0
e 236 7 34.0
e 236 84 23.0
e 236 14 30.0
e 236 315 38.0
e 237 268 23.0
e 237 239 29.0
e 237 45 9.0
e 237 200 4.0
e 237 90 24.0
e 237 201 13.0
e 237 212 15.0
e 237 61 39.0
e 237 160 18.0
e 237 213 5.0
e 237 24 48.0
e 237 188 18.0
e 237 144 1.0
e 237 198 23.0
e 237 100 40.0
e 237 73 6.0
e 237 72 6.0
e 237 262 35.0
e 237 149 44.0
e 237 214 7.0
e 237 107 38.0
e 237 259 18.0
e 238 74 1.0
e 239 293 2.0
e 240 150 40.0
e 240 259 30.0
e 240 118 22.0
e 240 216 47.0
e 240 318 17.0
e 240 75 38.0
e 240 26 12.0
e 240 181 17.0
e 240 268 48.0
e 240 115 9.0
e 240 37 46.0
e 240 125 13.0
e 240 221 15.0
e 240 148 42.0
e 240 135 30.0
e 240 189 42.0
e 240 81 40.0
e 240 114 4.0
e 240 82 42.0
e 240 170 24.0
e 240 270 42.0
e 240 252 12.0
e 240 67 11.0
e 240 225 16.0
e 241 253 2.0
e 242 160 1.0
e 243 68 2.0
e 244 82 2.0
e 245 269 1.0
e 246 10 2.0
e 247 277 23.0
e 247 304 21.0
e 247 184 16.0
e 247 55 20.0
e 247 36 20.0
e 247 238 42.0
e 247 124 32.0
e 247 127 23.0
e 247 222 27.0
e 247 107 34.0
e 247 278 13.0
e 247 47 28.0
e 247 310 30.0
e 247 117 2.0
e 247 68 35.0
e 247 160 19.0
e 247 91 30.0
e 247 4 42.0
e 247 158 30.0
e 247 53 12.0
e 247 246 47.0
e 247 111 37.0
e 248 117 2.0
e 249 2 3.0
e 250 288 1.0
e 251 195 1.0
e 252 227 41.0
e 252 148 9.0
e 252 78 6.0
e 253 290 2.0
e 254 92 1.0
e 255 169 1.0
e 256 239 1.0
e 257 226 1.0
e 258 103 2.0
e 259 215 1.0
e 260 2 3.0
e 261 256 49.0
e 261 159 26.0
e 261 72 44.0
e 261 202 43.0
e 261 289 23.0
e 261 259 36.0
e 261 76 48.0
e 261 229 2.0
e 261 60 1.0
e 261 56 43.0
e 261 196 19.0
e 261 93 28.0
e 261 310 38.0
e 261 316 6.0
e 261 41 20.0
e 261 247 24.0
e 261 154 3.0
e 261 71 30.0
e 261 233 30.0
e 261 262 16.0
e 261 49 32.0
e 261 171 15.0
e 262 277 2.0
e 263 244 1.0
e 264 201 2.0
e 265 310 11.0
e 265 302 9.0
e 265 178 5.0
e 265 3 35.0
e 265 80 1.0
e 265 189 45.0
e 265 164 4.0
e 265 135 9.0
e 265 49 20.0
e 265 304 44.0
e 265 122 30.0
e 265 274 4.0
e 265 177 23.0
e 265 155 6.0
e 265 151 9.0
e 265 87 13.0
e 265 244 29.0
e 265 51 26.0
e 265 58 6.0
e 265 117 46.0
e 265 25 43.0
e 265 216 34.0
e 265 115 23.0
e 267 43 1.0
e 268 296 1.0
e 269 166 1.0
e 270 265 47.0
e 271 71 1.0
e 272 275 33.0
e 273 205 1.0
e 274 114 19.0
e 274 222 12.0
e 274 23 38.0
e 274 313 4.0
e 274 271 23.0
e 274 159 20.0
e 274 7 12.0
e 274 199 21.0
e 274 54 44.0
e 274 58 10.0
e 274 278 19.0
e 274 238 5.0
e 274 83 5.0
e 274 285 40.0
e 274 249 19.0
e 274 242 2.0
e 274 26 1.0
e 274 306 36.0
e 275 318 37.0
e 275 307 32.0
e 275 165 12.0
e 275 112 45.0
e 275 25 23.0
e 275 12 25.0
e 275 173 21.0
e 275 27 31.0
e 275 304 11.0
e 275 127 49.0
e 275 148 35.0
e 275 126 19.0
e 275 105 25.0
e 275 241 46.0
e 275 108 46.0
e 275 47 38.0
e 275 162 45.0
e 275 308 30.0
e 276 53 1.0
e 277 219 1.0
e 278 134 2.0
e 279 132 1.0
e 280 79 1.0
e 281 26 4.0
e 282 267 15.0
e 282 217 38.0
e 282 4 14.0
e 282 248 41.0
e 282 51 41.0
e 282 125 27.0
e 282 302 10.0
e 282 263 2.0
e 282 234 38.0
e 282 233 43.0
e 282 42 11.0
e 282 117 21.0
e 282 289 35.0
e 282 141 24.0
e 282 251 46.0
e 282 15 10.0
e 282 67 36.0
e 282 129 7.0
e 282 140 3.0
e 282 115 19.0
e 282 165 42.0
e 283 69 1.0
e 283 171 49.0
e 283 291 21.0
e 283 314 7.0
e 283 223 35.0
e 283 271 2.0
e 283 61 24.0
e 283 71 8.0
e 283 53 31.0
e 283 40 38.0
e 283 200 17.0
e 283 76 24.0
e 283 193 3.0
e 283 98 16.0
e 283 318 37.0
e 283 204 8.0
e 283 295 27.0
e 283 152 26.0
e 283 235 26.0
e 283 52 2.0
e 283 3 17.0
e 283 249 20.0
e 284 128 1.0
e 285 164 1.0
e 286 308 2.0
e 287 243 3.0
e 287 119 39.0
e 287 202 15.0
e 287 51 34.0
e 287 173 35.0
e 287 314 1.0
e 287 76 30.0
e 287 77 43.0
e 287 90 32.0
e 287 281 17.0
e 287 60 13.0
e 287 108 7.0
e 287 4 30.0
e 287 69 18.0
e 287 88 39.0
e 287 291 34.0
e 287 174 37.0
e 287 13 5.0
e 287 305 13.0
e 287 96 24.0
e 287 199 4.0
e 287 109 36.0
e 288 311 1.0
e 289 101 34.0
e 290 260 1.0
e 291 150 2.0
e 292 181 36.0
e 292 42 1.0
e 293 168 2.0
e 294 140 2.0
e 295 297 3.0
e 296 90 1.0
e 297 249 2.0
e 298 303 2.0
e 299 73 22.0
e 300 181 34.0
e 300 124 7.0
e 301 189 39.0
e 301 266 40.0
e 301 139 9.0
e 301 127 7.0
e 301 208 20.0
e 301 229 43.0
e 301 101 43.0
e 301 175 34.0
e 301 91 32.0
e 301 57 30.0
e 301 261 38.0
e 301 72 4.0
e 301 300 26.0
e 301 286 3.0
e 301 115 7.0
e 301 30 25.0
e 301 26 32.0
e 301 58 13.0
e 301 182 21.0
e 301 263 26.0
e 301 235 25.0
e 301 102 27.0
e 301 158 31.0
e 302 273 2.0
e 303 168 3.0
e 304 46 1.0
e 305 14 1.0
e 306 309 1.0
e 307 168 1.0
e 308 30 1.0
e 309 116 1.0
e 310 14 4.0
e 311 185 2.0
e 312 252 9.0
e 313 269 1.0
e 314 149 1.0
e 315 116 1.0
e 316 55 1.0
e 317 276 1.0
e 318 55 6.0
e 319 311 1.0
